NAME          
ROWS
 N  OBJ
 L  c1
 L  c2
 L  c3
 L  c4
COLUMNS
    MARKER    'MARKER'                 'INTORG'
    x[1]      c1        553
    x[1]      c2        153
    x[1]      c3        223
    x[1]      c4        769
    x[1]      OBJ       -384
    x[2]      c1        512
    x[2]      c2        992
    x[2]      c3        751
    x[2]      c4        378
    x[2]      OBJ       -10
    x[3]      c1        383
    x[3]      c2        739
    x[3]      c3        36
    x[3]      c4        249
    x[3]      OBJ       -225
    x[4]      c1        552
    x[4]      c2        521
    x[4]      c3        839
    x[4]      c4        244
    x[4]      OBJ       -809
    x[5]      c1        277
    x[5]      c2        548
    x[5]      c3        567
    x[5]      c4        2
    x[5]      OBJ       -200
    x[6]      c1        131
    x[6]      c2        616
    x[6]      c3        997
    x[6]      c4        366
    x[6]      OBJ       -119
    x[7]      c1        524
    x[7]      c2        162
    x[7]      c3        762
    x[7]      c4        404
    x[7]      OBJ       -961
    x[8]      c1        933
    x[8]      c2        938
    x[8]      c3        415
    x[8]      c4        299
    x[8]      OBJ       -59
    x[9]      c1        367
    x[9]      c2        395
    x[9]      c3        111
    x[9]      c4        964
    x[9]      OBJ       -154
    x[10]     c1        866
    x[10]     c2        985
    x[10]     c3        816
    x[10]     c4        181
    x[10]     OBJ       -249
    x[11]     c1        329
    x[11]     c2        322
    x[11]     c3        136
    x[11]     c4        28
    x[11]     OBJ       -648
    x[12]     c1        409
    x[12]     c2        733
    x[12]     c3        526
    x[12]     c4        158
    x[12]     OBJ       -764
    x[13]     c1        693
    x[13]     c2        754
    x[13]     c3        365
    x[13]     c4        420
    x[13]     OBJ       -413
    x[14]     c1        451
    x[14]     c2        752
    x[14]     c3        746
    x[14]     c4        723
    x[14]     OBJ       -710
    x[15]     c1        417
    x[15]     c2        711
    x[15]     c3        613
    x[15]     c4        365
    x[15]     OBJ       -797
RHS
    rhs       c1        3698
    rhs       c2        4660
    rhs       c3        3952
    rhs       c4        2775
RANGES
BOUNDS
 BV bounds    x[1]
 BV bounds    x[2]
 BV bounds    x[3]
 BV bounds    x[4]
 BV bounds    x[5]
 BV bounds    x[6]
 BV bounds    x[7]
 BV bounds    x[8]
 BV bounds    x[9]
 BV bounds    x[10]
 BV bounds    x[11]
 BV bounds    x[12]
 BV bounds    x[13]
 BV bounds    x[14]
 BV bounds    x[15]
ENDATA
